43
0 1 2 1 3 4 5 3 6 7 8 5 9 10 6 4 11 12 13 13 14 15 16 17 6 18 19 20 21 22 2 10 22 23 16 8 14 24 3 18 25 7 26 17 21 27 9 26 28 0 7 9 1 12 29 30 31 28 15 32 33 8 31 23 20 34 18 16 11 35 34 29 20 36 24 23 37 25 36 38 31 30 39 21 40 40 39 33 17 27 22 37 41 15 42 35 25 38 37 41 
